(set-logic QF_S)
(declare-fun var0 () String)
(declare-fun var1 () String)
(declare-fun var2 () String)
(declare-fun var3 () String)
(declare-fun var4 () String)
(declare-fun var5 () String)
(declare-fun var6 () String)
(declare-fun var7 () String)
(declare-fun var8 () String)
(declare-fun var9 () String)
(declare-fun var10 () String)
(declare-fun var11 () String)
(declare-fun var12 () String)
(declare-fun var13 () String)
(declare-fun var14 () String)
(declare-fun var15 () String)
(declare-fun var16 () String)
(declare-fun var17 () String)
(declare-fun var18 () String)
(declare-fun var19 () String)
(declare-fun var20 () String)
(declare-fun var21 () String)
(declare-fun var22 () String)
(declare-fun var23 () String)
(declare-fun var24 () String)
(declare-fun var25 () String)
(declare-fun var26 () String)
(declare-fun var27 () String)
(declare-fun var28 () String)
(declare-fun var29 () String)
(declare-fun var30 () String)
(declare-fun var31 () String)
(declare-fun var32 () String)
(declare-fun var33 () String)
(declare-fun var34 () String)
(declare-fun var35 () String)
(declare-fun var36 () String)
(declare-fun var37 () String)
(declare-fun var38 () String)
(declare-fun var39 () String)
(declare-fun var40 () String)
(declare-fun var41 () String)
(declare-fun var42 () String)
(declare-fun var43 () String)
(declare-fun var44 () String)
(declare-fun var45 () String)
(declare-fun var46 () String)
(declare-fun var47 () String)
(declare-fun var48 () String)
(declare-fun var49 () String)
(declare-fun var50 () String)
(declare-fun var51 () String)
(declare-fun var52 () String)
(declare-fun var53 () String)
(declare-fun var54 () String)
(declare-fun var55 () String)
(declare-fun var56 () String)
(declare-fun var57 () String)
(declare-fun var58 () String)
(declare-fun var59 () String)
(declare-fun var60 () String)
(assert (= var0 (str.++ var1 var2)))
(assert (= var2 (str.++ var3 var4)))
(assert (= var4 (str.++ var5 var6)))
(assert (= var6 (str.++ var7 var8)))
(assert (= var8 (str.++ var9 var10)))
(assert (= var10 (str.++ var11 var12)))
(assert (= var12 (str.++ var13 var14)))
(assert (= var14 (str.++ var15 var16)))
(assert (= var16 (str.++ var17 var18)))
(assert (= var18 (str.++ var19 var20)))
(assert (= var20 (str.++ var21 var22)))
(assert (= var22 (str.++ var23 var24)))
(assert (= var24 (str.++ var25 var26)))
(assert (= var26 (str.++ var27 var28)))
(assert (= var28 (str.++ var29 var30)))
(assert (= var30 (str.++ var31 var32)))
(assert (= var32 (str.++ var33 var34)))
(assert (= var34 (str.++ var35 var36)))
(assert (= var36 (str.++ var37 var38)))
(assert (= var38 (str.++ var39 var40)))
(assert (= var40 (str.++ var41 var42)))
(assert (= var42 (str.++ var43 var44)))
(assert (= var44 (str.++ var45 var46)))
(assert (= var46 (str.++ var47 var48)))
(assert (= var48 (str.++ var49 var50)))
(assert (= var50 (str.++ var51 var52)))
(assert (= var52 (str.++ var53 var54)))
(assert (= var54 (str.++ var55 var56)))
(assert (= var56 (str.++ var57 var58)))
(assert (= var58 (str.++ var59 var60)))
(assert (= var0 "solution"))
(assert (= "<" (str.at var26 569)))
(assert (= "5" (str.at var19 49)))
(assert (= "L" (str.at var16 747)))
(assert (= "`" (str.at var29 417)))
(assert (= "g" (str.at var26 843)))
(assert (= "L" (str.at var4 722)))
(assert (= "8" (str.at var21 383)))
(assert (= "C" (str.at var53 119)))
(assert (= "M" (str.at var12 22)))
(assert (= "t" (str.at var31 263)))
(assert (= "X" (str.at var33 301)))
(assert (= "a" (str.at var34 935)))
(assert (= "G" (str.at var41 736)))
(assert (= "," (str.at var20 717)))
(assert (= "O" (str.at var17 932)))
(assert (= "G" (str.at var11 876)))
(assert (= "6" (str.at var38 206)))
(assert (= "L" (str.at var10 10)))
(assert (= "1" (str.at var2 957)))
(assert (= "4" (str.at var3 132)))
(assert (= "|" (str.at var49 314)))
(assert (= "@" (str.at var25 149)))
(assert (= "n" (str.at var16 158)))
(assert (= "e" (str.at var8 60)))
(assert (= "u" (str.at var7 154)))
(assert (= "c" (str.at var27 759)))
(assert (= "(" (str.at var45 503)))
(assert (= "." (str.at var55 363)))
(assert (= "?" (str.at var25 707)))
(assert (= "^" (str.at var58 829)))
(assert (= "}" (str.at var14 440)))
(assert (= "f" (str.at var29 395)))
(assert (= "H" (str.at var12 98)))
(assert (= "}" (str.at var17 40)))
(assert (= "Y" (str.at var19 772)))
(assert (= "-" (str.at var31 752)))
(assert (= "C" (str.at var28 904)))
(assert (= "F" (str.at var28 119)))
(assert (= "8" (str.at var2 944)))
(assert (= "e" (str.at var21 412)))
(assert (= "+" (str.at var51 157)))
(assert (= "-" (str.at var38 95)))
(assert (= "m" (str.at var19 897)))
(assert (= "j" (str.at var46 924)))
(assert (= "8" (str.at var3 624)))
(assert (= "2" (str.at var19 960)))
(assert (= "4" (str.at var11 918)))
(assert (= "}" (str.at var17 531)))
(assert (= "[" (str.at var4 59)))
(assert (= "9" (str.at var19 739)))
(assert (= "K" (str.at var14 442)))
(assert (= "&" (str.at var22 713)))
(assert (= "{" (str.at var26 297)))
(assert (= "y" (str.at var18 20)))
(assert (= "7" (str.at var54 639)))
(assert (= "d" (str.at var47 612)))
(assert (= "I" (str.at var51 231)))
(assert (= "C" (str.at var60 697)))
(assert (= "e" (str.at var25 481)))
(assert (= "1" (str.at var43 446)))
(assert (= "," (str.at var53 301)))
(assert (= "3" (str.at var53 805)))
(assert (= "K" (str.at var54 198)))
(assert (= "y" (str.at var59 362)))
(assert (= "4" (str.at var47 280)))
(assert (= "a" (str.at var36 59)))
(assert (= "'" (str.at var21 729)))
(assert (= "/" (str.at var35 636)))
(assert (= "2" (str.at var54 568)))
(assert (= "." (str.at var25 462)))
(assert (= "s" (str.at var30 785)))
(assert (= "_" (str.at var1 852)))
(assert (= "a" (str.at var55 598)))
(assert (= "J" (str.at var14 493)))
(assert (= "z" (str.at var28 568)))
(assert (= "[" (str.at var38 79)))
(assert (= "[" (str.at var25 760)))
(assert (= "a" (str.at var47 74)))
(assert (= "Y" (str.at var16 248)))
(assert (= "u" (str.at var53 336)))
(assert (= "(" (str.at var40 220)))
(assert (= "]" (str.at var37 735)))
(assert (= "M" (str.at var37 814)))
(assert (= "t" (str.at var17 703)))
(assert (= "_" (str.at var27 820)))
(assert (= "9" (str.at var35 902)))
(assert (= "X" (str.at var5 277)))
(assert (= "`" (str.at var11 783)))
(assert (= "Q" (str.at var7 711)))
(assert (= "Z" (str.at var37 564)))
(assert (= "x" (str.at var17 739)))
(assert (= "E" (str.at var32 67)))
(assert (= "a" (str.at var16 120)))
(assert (= "T" (str.at var40 509)))
(assert (= "v" (str.at var33 47)))
(assert (= "%" (str.at var45 661)))
(assert (= "e" (str.at var14 542)))
(assert (= "l" (str.at var2 377)))
(assert (= "[" (str.at var40 951)))
(assert (= "p" (str.at var51 838)))
(assert (= "H" (str.at var55 982)))
(assert (= "." (str.at var60 246)))
(assert (= "g" (str.at var38 451)))
(assert (= "X" (str.at var26 143)))
(assert (= "@" (str.at var28 88)))
(assert (= "#" (str.at var13 465)))
(assert (= "@" (str.at var38 808)))
(assert (= "<" (str.at var38 277)))
(assert (= "(" (str.at var48 263)))
(assert (= "+" (str.at var43 638)))
(assert (= "H" (str.at var48 102)))
(assert (= "W" (str.at var55 710)))
(assert (= "!" (str.at var7 300)))
(assert (= "I" (str.at var33 473)))
(assert (= "u" (str.at var19 95)))
(assert (= "Z" (str.at var30 488)))
(assert (= "q" (str.at var60 136)))
(assert (= "t" (str.at var55 894)))
(assert (= "A" (str.at var31 257)))
(assert (= "c" (str.at var7 457)))
(assert (= "^" (str.at var44 944)))
(assert (= "l" (str.at var9 622)))
(assert (= "`" (str.at var8 840)))
(assert (= "o" (str.at var42 55)))
(assert (= "d" (str.at var48 7)))
(assert (= "u" (str.at var41 822)))
(assert (= "o" (str.at var31 976)))
(assert (= "k" (str.at var46 787)))
(assert (= "B" (str.at var10 86)))
(assert (= ":" (str.at var3 742)))
(assert (= ":" (str.at var38 653)))
(assert (= "u" (str.at var2 117)))
(assert (= "h" (str.at var35 97)))
(assert (= "~" (str.at var36 164)))
(assert (= "5" (str.at var9 859)))
(assert (= "5" (str.at var51 306)))
(assert (= "7" (str.at var8 61)))
(assert (= "}" (str.at var43 334)))
(assert (= "o" (str.at var35 218)))
(assert (= "`" (str.at var25 697)))
(assert (= "|" (str.at var57 440)))
(assert (= "Q" (str.at var38 199)))
(assert (= "?" (str.at var14 763)))
(assert (= "l" (str.at var3 835)))
(assert (= "4" (str.at var28 842)))
(assert (= "m" (str.at var5 534)))
(assert (= "c" (str.at var44 122)))
(assert (= "k" (str.at var23 338)))
(assert (= "x" (str.at var16 432)))
(assert (= "5" (str.at var47 239)))
(assert (= "U" (str.at var44 680)))
(assert (= "v" (str.at var49 362)))
(assert (= "W" (str.at var28 918)))
(assert (= "R" (str.at var11 332)))
(assert (= "*" (str.at var28 379)))
(assert (= "F" (str.at var6 957)))
(assert (= "C" (str.at var49 485)))
(assert (= "," (str.at var56 592)))
(assert (= "@" (str.at var25 506)))
(assert (= "[" (str.at var36 965)))
(assert (= "C" (str.at var2 335)))
(assert (= "\\" (str.at var55 514)))
(assert (= "?" (str.at var60 102)))
(assert (= "x" (str.at var57 797)))
(assert (= "V" (str.at var45 316)))
(assert (= ":" (str.at var57 1000)))
(assert (= "a" (str.at var8 343)))
(assert (= "c" (str.at var9 829)))
(assert (= "M" (str.at var29 779)))
(assert (= "F" (str.at var36 876)))
(assert (= ">" (str.at var45 879)))
(assert (= "b" (str.at var48 98)))
(assert (= "p" (str.at var22 395)))
(assert (= "j" (str.at var2 205)))
(assert (= "k" (str.at var39 442)))
(assert (= "V" (str.at var2 452)))
(assert (= "0" (str.at var39 812)))
(assert (= ")" (str.at var17 732)))
(assert (= "3" (str.at var56 109)))
(assert (= "K" (str.at var25 521)))
(assert (= "y" (str.at var36 24)))
(assert (= "2" (str.at var26 80)))
(assert (= "a" (str.at var21 64)))
(assert (= "q" (str.at var34 322)))
(assert (= "E" (str.at var51 795)))
(assert (= "a" (str.at var55 347)))
(assert (= "X" (str.at var16 617)))
(assert (= "K" (str.at var1 633)))
(assert (= "9" (str.at var36 227)))
(assert (= ">" (str.at var21 634)))
(assert (= "{" (str.at var6 411)))
(assert (= "f" (str.at var25 305)))
(assert (= "*" (str.at var28 872)))
(assert (= "Z" (str.at var55 268)))
(assert (= "K" (str.at var4 745)))
(assert (= "F" (str.at var49 965)))
(assert (= "s" (str.at var15 56)))
(assert (= "w" (str.at var11 788)))
(assert (= "j" (str.at var30 1000)))
(assert (= "S" (str.at var31 306)))
(assert (= "1" (str.at var13 332)))
(assert (= "5" (str.at var31 784)))
(assert (= "I" (str.at var36 682)))
(assert (= "`" (str.at var45 186)))
(assert (= "i" (str.at var5 179)))
(assert (= "=" (str.at var50 418)))
(assert (= "M" (str.at var23 619)))
(assert (= "J" (str.at var9 473)))
(assert (= "|" (str.at var46 993)))
(assert (= "}" (str.at var14 31)))
(assert (= "d" (str.at var54 992)))
(assert (= "L" (str.at var58 383)))
(assert (= "~" (str.at var20 880)))
(assert (= "m" (str.at var14 97)))
(assert (= "I" (str.at var14 506)))
(assert (= "T" (str.at var54 603)))
(assert (= "D" (str.at var27 349)))
(assert (= "q" (str.at var34 213)))
(assert (= "p" (str.at var7 881)))
(assert (= "A" (str.at var41 819)))
(assert (= "[" (str.at var19 53)))
(assert (= "4" (str.at var29 228)))
(assert (= "$" (str.at var0 205)))
(assert (= "9" (str.at var31 724)))
(assert (= "z" (str.at var23 445)))
(assert (= "U" (str.at var23 389)))
(assert (= ":" (str.at var53 558)))
(assert (= "X" (str.at var45 137)))
(assert (= "2" (str.at var6 750)))
(assert (= "D" (str.at var50 278)))
(assert (= """" (str.at var57 755)))
(assert (= "W" (str.at var38 55)))
(assert (= "6" (str.at var59 993)))
(assert (= "0" (str.at var10 561)))
(assert (= "p" (str.at var59 719)))
(assert (= ">" (str.at var59 554)))
(assert (= "q" (str.at var31 957)))
(assert (= "$" (str.at var47 562)))
(assert (= "Z" (str.at var3 457)))
(assert (= "@" (str.at var40 974)))
(assert (= "3" (str.at var16 801)))
(assert (= "|" (str.at var59 449)))
(assert (= "I" (str.at var15 907)))
(assert (= "r" (str.at var16 442)))
(assert (= "_" (str.at var54 598)))
(assert (= ")" (str.at var38 776)))
(assert (= "^" (str.at var3 730)))
(assert (= "u" (str.at var21 824)))
(assert (= "A" (str.at var45 311)))
(assert (= "C" (str.at var18 266)))
(assert (= "." (str.at var60 243)))
(assert (= "`" (str.at var8 686)))
(assert (= "K" (str.at var18 180)))
(assert (= "E" (str.at var3 602)))
(assert (= "5" (str.at var21 788)))
(assert (= "o" (str.at var18 224)))
(assert (= "\\" (str.at var55 891)))
(assert (= "+" (str.at var53 436)))
(assert (= "S" (str.at var2 837)))
(assert (= "0" (str.at var55 343)))
(assert (= "E" (str.at var45 47)))
(assert (= "7" (str.at var34 502)))
(assert (= "#" (str.at var51 166)))
(assert (= "Q" (str.at var2 562)))
(assert (= "e" (str.at var28 430)))
(assert (= ">" (str.at var9 51)))
(assert (= "y" (str.at var35 25)))
(assert (= "\\" (str.at var59 534)))
(assert (= "u" (str.at var56 350)))
(assert (= "7" (str.at var53 946)))
(assert (= "&" (str.at var8 236)))
(assert (= "`" (str.at var40 250)))
(assert (= "^" (str.at var16 126)))
(assert (= "3" (str.at var57 954)))
(assert (= ";" (str.at var44 574)))
(assert (= "J" (str.at var53 179)))
(assert (= "0" (str.at var40 340)))
(assert (= "/" (str.at var35 968)))
(assert (= "<" (str.at var32 108)))
(assert (= "5" (str.at var45 652)))
(assert (= "$" (str.at var34 776)))
(assert (= "C" (str.at var57 800)))
(assert (= "e" (str.at var40 260)))
(assert (= "2" (str.at var9 480)))
(assert (= "3" (str.at var4 172)))
(assert (= "N" (str.at var28 991)))
(assert (= "c" (str.at var46 328)))
(assert (= "J" (str.at var4 859)))
(assert (= "b" (str.at var27 525)))
(assert (= "!" (str.at var36 508)))
(assert (= "#" (str.at var11 609)))
(assert (= "e" (str.at var58 436)))
(assert (= ";" (str.at var6 515)))
(assert (= "P" (str.at var3 555)))
(assert (= "p" (str.at var15 825)))
(assert (= "_" (str.at var21 70)))
(assert (= ":" (str.at var53 602)))
(assert (= "9" (str.at var47 807)))
(assert (= "9" (str.at var13 125)))
(assert (= "c" (str.at var57 931)))
(assert (= "C" (str.at var42 73)))
(assert (= "d" (str.at var15 950)))
(assert (= "L" (str.at var53 293)))
(assert (= "1" (str.at var35 158)))
(assert (= ")" (str.at var59 97)))
(assert (= "E" (str.at var9 794)))
(assert (= "H" (str.at var32 20)))
(assert (= "I" (str.at var20 735)))
(assert (= "|" (str.at var32 567)))
(assert (= "D" (str.at var25 837)))
(assert (= "0" (str.at var34 589)))
(assert (= "I" (str.at var12 924)))
(assert (= "~" (str.at var14 896)))
(assert (= "U" (str.at var14 159)))
(assert (= "z" (str.at var11 252)))
(assert (= ":" (str.at var48 129)))
(assert (= "Z" (str.at var40 628)))
(assert (= "Z" (str.at var9 774)))
(assert (= "6" (str.at var35 656)))
(assert (= "=" (str.at var15 657)))
(assert (= "f" (str.at var44 918)))
(assert (= "t" (str.at var24 712)))
(assert (= "h" (str.at var16 591)))
(assert (= "r" (str.at var50 537)))
(assert (= "^" (str.at var29 511)))
(assert (= "$" (str.at var27 730)))
(assert (= "*" (str.at var14 787)))
(assert (= "]" (str.at var14 809)))
(assert (= "7" (str.at var53 656)))
(assert (= "N" (str.at var42 161)))
(assert (= "|" (str.at var39 416)))
(assert (= "'" (str.at var15 637)))
(assert (= ";" (str.at var0 333)))
(assert (= "q" (str.at var58 837)))
(assert (= "R" (str.at var44 746)))
(assert (= "7" (str.at var50 400)))
(assert (= "\\" (str.at var2 713)))
(assert (= "4" (str.at var18 290)))
(assert (= "!" (str.at var41 645)))
(assert (= "r" (str.at var14 111)))
(assert (= "C" (str.at var10 196)))
(assert (= "j" (str.at var28 713)))
(assert (= "v" (str.at var3 508)))
(assert (= "l" (str.at var21 693)))
(assert (= ";" (str.at var27 708)))
(assert (= "=" (str.at var56 335)))
(assert (= "(" (str.at var4 385)))
(assert (= "T" (str.at var0 258)))
(assert (= "{" (str.at var14 642)))
(assert (= "x" (str.at var11 595)))
(assert (= "+" (str.at var17 223)))
(assert (= "~" (str.at var43 509)))
(assert (= "b" (str.at var37 414)))
(assert (= "x" (str.at var18 64)))
(assert (= "i" (str.at var15 874)))
(assert (= "v" (str.at var44 940)))
(assert (= ":" (str.at var52 153)))
(assert (= "&" (str.at var38 519)))
(assert (= "3" (str.at var31 644)))
(assert (= "'" (str.at var6 371)))
(assert (= "7" (str.at var11 335)))
(assert (= "5" (str.at var38 537)))
(assert (= "7" (str.at var52 255)))
(assert (= "q" (str.at var6 866)))
(assert (= "y" (str.at var43 873)))
(assert (= ":" (str.at var19 51)))
(assert (= "P" (str.at var59 749)))
(assert (= "#" (str.at var48 322)))
(assert (= "7" (str.at var28 938)))
(assert (= "=" (str.at var28 475)))
(assert (= "4" (str.at var42 992)))
(assert (= "W" (str.at var43 149)))
(assert (= "n" (str.at var22 641)))
(assert (= "_" (str.at var46 638)))
(assert (= "u" (str.at var28 426)))
(assert (= "S" (str.at var54 232)))
(assert (= "d" (str.at var30 221)))
(assert (= "h" (str.at var27 95)))
(assert (= "O" (str.at var28 228)))
(assert (= ")" (str.at var20 365)))
(assert (= "%" (str.at var59 185)))
(assert (= "u" (str.at var26 366)))
(assert (= "W" (str.at var47 527)))
(assert (= "x" (str.at var16 510)))
(assert (= "*" (str.at var27 455)))
(assert (= "^" (str.at var23 920)))
(assert (= "n" (str.at var20 325)))
(assert (= "8" (str.at var5 356)))
(assert (= "E" (str.at var53 517)))
(assert (= "." (str.at var32 83)))
(assert (= ":" (str.at var22 260)))
(assert (= "c" (str.at var37 403)))
(assert (= "R" (str.at var25 636)))
(assert (= "R" (str.at var7 277)))
(assert (= "l" (str.at var53 611)))
(assert (= "!" (str.at var4 730)))
(assert (= "3" (str.at var43 442)))
(assert (= "$" (str.at var6 30)))
(assert (= "{" (str.at var50 925)))
(assert (= "&" (str.at var18 383)))
(assert (= "k" (str.at var1 59)))
(assert (= "/" (str.at var51 547)))
(assert (= "o" (str.at var27 355)))
(assert (= "B" (str.at var39 569)))
(assert (= "v" (str.at var57 527)))
(assert (= "3" (str.at var35 253)))
(assert (= "g" (str.at var58 584)))
(assert (= "~" (str.at var22 333)))
(assert (= "l" (str.at var21 318)))
(assert (= "7" (str.at var35 83)))
(assert (= "`" (str.at var20 859)))
(assert (= "m" (str.at var14 190)))
(assert (= "j" (str.at var20 159)))
(assert (= "K" (str.at var17 986)))
(assert (= "3" (str.at var57 429)))
(assert (= "\\" (str.at var50 586)))
(assert (= "i" (str.at var21 636)))
(assert (= "%" (str.at var35 223)))
(assert (= "$" (str.at var32 217)))
(assert (= "V" (str.at var25 172)))
(assert (= "o" (str.at var32 758)))
(assert (= "A" (str.at var12 12)))
(assert (= "O" (str.at var3 873)))
(assert (= "4" (str.at var37 114)))
(assert (= "9" (str.at var1 487)))
(assert (= "(" (str.at var9 632)))
(assert (= "<" (str.at var59 981)))
(assert (= "-" (str.at var39 641)))
(assert (= "0" (str.at var13 1)))
(assert (= "j" (str.at var3 820)))
(assert (= "[" (str.at var46 40)))
(assert (= "-" (str.at var25 260)))
(assert (= "e" (str.at var0 778)))
(assert (= "C" (str.at var10 790)))
(assert (= "4" (str.at var23 26)))
(assert (= "I" (str.at var43 554)))
(assert (= "F" (str.at var43 783)))
(assert (= "7" (str.at var38 721)))
(assert (= "x" (str.at var16 208)))
(assert (= "O" (str.at var40 62)))
(assert (= "f" (str.at var42 816)))
(assert (= "1" (str.at var57 246)))
(assert (= ">" (str.at var34 605)))
(assert (= "Y" (str.at var10 99)))
(assert (= "{" (str.at var32 327)))
(assert (= "," (str.at var37 689)))
(assert (= "3" (str.at var17 819)))
(assert (= "M" (str.at var43 798)))
(assert (= "]" (str.at var53 242)))
(assert (= "]" (str.at var14 875)))
(assert (= "8" (str.at var1 552)))
(assert (= "~" (str.at var53 938)))
(assert (= "p" (str.at var56 1000)))
(assert (= """" (str.at var23 237)))
(assert (= "(" (str.at var10 924)))
(assert (= "'" (str.at var42 136)))
(assert (= "A" (str.at var1 933)))
(assert (= "o" (str.at var59 506)))
(assert (= "y" (str.at var23 155)))
(assert (= "(" (str.at var38 24)))
(assert (= "N" (str.at var48 551)))
(assert (= "I" (str.at var32 852)))
(assert (= "=" (str.at var11 695)))
(assert (= "J" (str.at var49 237)))
(assert (= "B" (str.at var45 272)))
(assert (= "{" (str.at var25 489)))
(assert (= "{" (str.at var45 566)))
(assert (= "|" (str.at var3 216)))
(assert (= "E" (str.at var28 361)))
(assert (= ")" (str.at var50 649)))
(assert (= "k" (str.at var0 620)))
(assert (= "#" (str.at var51 741)))
(assert (= "M" (str.at var35 301)))
(assert (= "'" (str.at var53 579)))
(assert (= "M" (str.at var43 774)))
(assert (= "z" (str.at var41 289)))
(assert (= "." (str.at var33 476)))
(assert (= "b" (str.at var5 506)))
(assert (= "n" (str.at var18 313)))
(assert (= "$" (str.at var15 931)))
(assert (= "I" (str.at var24 515)))
(assert (= "s" (str.at var58 349)))
(assert (= "." (str.at var49 114)))
(assert (= "~" (str.at var57 484)))
(assert (= "U" (str.at var41 293)))
(assert (= "E" (str.at var15 66)))
(assert (= "`" (str.at var51 736)))
(assert (= "Q" (str.at var7 965)))
(assert (= "^" (str.at var4 75)))
(assert (= "G" (str.at var42 765)))
(assert (= "I" (str.at var23 841)))
(assert (= "u" (str.at var28 420)))
(assert (= "7" (str.at var22 175)))
(assert (= "s" (str.at var26 189)))
(assert (= "9" (str.at var37 80)))
(assert (= "O" (str.at var8 921)))
(assert (= "Y" (str.at var13 891)))
(assert (= "X" (str.at var6 423)))
(assert (= "2" (str.at var42 598)))
(assert (= "'" (str.at var9 438)))
(assert (= "|" (str.at var39 35)))
(assert (= "=" (str.at var11 938)))
(assert (= "." (str.at var0 31)))
(assert (= "$" (str.at var1 92)))
(assert (= "*" (str.at var32 487)))
(assert (= "_" (str.at var58 266)))
(assert (= "/" (str.at var52 648)))
(assert (= "~" (str.at var36 136)))
(assert (= "F" (str.at var23 267)))
(assert (= "F" (str.at var30 457)))
(assert (= "&" (str.at var23 239)))
(assert (= "g" (str.at var35 800)))
(assert (= "f" (str.at var51 715)))
(assert (= "S" (str.at var37 283)))
(assert (= "1" (str.at var23 319)))
(assert (= "u" (str.at var54 791)))
(assert (= "?" (str.at var38 436)))
(assert (= "{" (str.at var49 378)))
(assert (= "0" (str.at var21 656)))
(assert (= "Y" (str.at var19 294)))
(assert (= "]" (str.at var26 248)))
(assert (= "y" (str.at var43 198)))
(assert (= "g" (str.at var22 340)))
(assert (= "8" (str.at var59 943)))
(assert (= "7" (str.at var53 296)))
(assert (= "A" (str.at var48 650)))
(assert (= "p" (str.at var57 214)))
(assert (= """" (str.at var12 649)))
(assert (= "1" (str.at var8 573)))
(assert (= "g" (str.at var2 96)))
(assert (= "D" (str.at var46 506)))
(assert (= "j" (str.at var48 458)))
(assert (= "o" (str.at var23 214)))
(assert (= "f" (str.at var37 109)))
(assert (= "&" (str.at var52 754)))
(assert (= "v" (str.at var33 268)))
(assert (= "y" (str.at var37 821)))
(assert (= "B" (str.at var40 508)))
(assert (= "N" (str.at var22 25)))
(assert (= "Y" (str.at var60 300)))
(assert (= "1" (str.at var15 916)))
(assert (= "X" (str.at var16 104)))
(assert (= "<" (str.at var2 286)))
(assert (= "%" (str.at var6 696)))
(assert (= "(" (str.at var38 264)))
(assert (= "5" (str.at var53 732)))
(assert (= "K" (str.at var42 213)))
(assert (= "=" (str.at var18 427)))
(assert (= "c" (str.at var57 348)))
(assert (= "&" (str.at var55 860)))
(assert (= "0" (str.at var46 651)))
(assert (= "r" (str.at var50 150)))
(assert (= "/" (str.at var1 348)))
(assert (= "W" (str.at var40 978)))
(assert (= "h" (str.at var40 875)))
(assert (= "!" (str.at var23 132)))
(assert (= "U" (str.at var41 371)))
(assert (= "f" (str.at var38 12)))
(assert (= ";" (str.at var11 563)))
(assert (= "D" (str.at var19 434)))
(assert (= "5" (str.at var50 819)))
(assert (= "y" (str.at var12 670)))
(assert (= ";" (str.at var30 738)))
(assert (= "A" (str.at var58 778)))
(assert (= "E" (str.at var34 773)))
(assert (= "M" (str.at var12 793)))
(assert (= "-" (str.at var36 432)))
(assert (= "r" (str.at var1 465)))
(assert (= "d" (str.at var18 630)))
(assert (= "c" (str.at var41 144)))
(assert (= "6" (str.at var20 64)))
(assert (= "[" (str.at var2 754)))
(assert (= "j" (str.at var19 491)))
(assert (= "@" (str.at var25 852)))
(assert (= "V" (str.at var46 595)))
(assert (= "O" (str.at var25 254)))
(assert (= "u" (str.at var7 883)))
(assert (= "l" (str.at var33 379)))
(assert (= "D" (str.at var35 883)))
(assert (= "`" (str.at var34 9)))
(assert (= "j" (str.at var45 269)))
(assert (= "P" (str.at var24 981)))
(assert (= "Z" (str.at var47 584)))
(assert (= "\\" (str.at var55 847)))
(assert (= "%" (str.at var38 629)))
(assert (= "_" (str.at var57 315)))
(assert (= "," (str.at var36 797)))
(assert (= "D" (str.at var45 749)))
(assert (= "j" (str.at var4 206)))
(assert (= ">" (str.at var6 322)))
(assert (= "[" (str.at var46 576)))
(assert (= "C" (str.at var40 808)))
(assert (= "&" (str.at var43 987)))
(assert (= "m" (str.at var22 68)))
(assert (= "$" (str.at var59 781)))
(assert (= "9" (str.at var57 488)))
(assert (= "&" (str.at var0 47)))
(assert (= "g" (str.at var18 142)))
(assert (= "*" (str.at var35 767)))
(assert (= "V" (str.at var6 745)))
(assert (= "<" (str.at var1 27)))
(assert (= "]" (str.at var54 952)))
(assert (= "k" (str.at var24 282)))
(assert (= "m" (str.at var48 638)))
(assert (= "u" (str.at var14 779)))
(assert (= "U" (str.at var25 72)))
(assert (= "3" (str.at var4 982)))
(assert (= "j" (str.at var46 586)))
(assert (= "2" (str.at var40 878)))
(assert (= "8" (str.at var36 799)))
(assert (= "z" (str.at var4 171)))
(assert (= "L" (str.at var58 212)))
(assert (= "G" (str.at var60 340)))
(assert (= "P" (str.at var0 364)))
(assert (= "H" (str.at var9 573)))
(assert (= "G" (str.at var24 694)))
(assert (= "r" (str.at var16 719)))
(assert (= "Q" (str.at var25 318)))
(assert (= "v" (str.at var7 935)))
(assert (= "|" (str.at var42 960)))
(assert (= "@" (str.at var20 879)))
(assert (= "y" (str.at var6 864)))
(assert (= "6" (str.at var17 996)))
(assert (= "F" (str.at var23 926)))
(assert (= "L" (str.at var51 706)))
(assert (= "C" (str.at var18 386)))
(assert (= "I" (str.at var24 384)))
(assert (= "Z" (str.at var2 854)))
(assert (= "c" (str.at var38 563)))
(assert (= ">" (str.at var27 422)))
(assert (= "o" (str.at var11 745)))
(assert (= "i" (str.at var31 214)))
(assert (= "o" (str.at var11 82)))
(assert (= """" (str.at var57 414)))
(assert (= "h" (str.at var0 468)))
(assert (= "!" (str.at var45 981)))
(assert (= "K" (str.at var1 467)))
(assert (= "I" (str.at var4 867)))
(assert (= "3" (str.at var22 691)))
(assert (= "I" (str.at var47 308)))
(assert (= "&" (str.at var57 722)))
(assert (= "N" (str.at var12 628)))
(assert (= "/" (str.at var45 896)))
(assert (= "m" (str.at var24 558)))
(assert (= "v" (str.at var5 393)))
(assert (= "]" (str.at var16 504)))
(assert (= "4" (str.at var55 228)))
(assert (= ">" (str.at var21 409)))
(assert (= "H" (str.at var0 114)))
(assert (= "j" (str.at var58 2)))
(assert (= "X" (str.at var51 694)))
(assert (= "T" (str.at var13 714)))
(assert (= "8" (str.at var53 795)))
(assert (= "]" (str.at var25 56)))
(assert (= "w" (str.at var30 233)))
(assert (= "M" (str.at var25 549)))
(assert (= "?" (str.at var49 717)))
(assert (= "3" (str.at var35 370)))
(assert (= "A" (str.at var17 878)))
(assert (= "a" (str.at var16 42)))
(assert (= "G" (str.at var6 753)))
(assert (= "t" (str.at var59 580)))
(assert (= "P" (str.at var40 442)))
(assert (= "(" (str.at var7 942)))
(assert (= "f" (str.at var34 85)))
(assert (= "u" (str.at var55 635)))
(assert (= "'" (str.at var48 88)))
(assert (= "3" (str.at var40 461)))
(assert (= "%" (str.at var49 938)))
(assert (= "8" (str.at var18 416)))
(assert (= "y" (str.at var1 676)))
(assert (= "z" (str.at var23 721)))
(assert (= "$" (str.at var1 202)))
(assert (= "\\" (str.at var12 292)))
(assert (= "l" (str.at var60 382)))
(assert (= "e" (str.at var11 159)))
(assert (= "+" (str.at var39 670)))
(assert (= "1" (str.at var30 242)))
(assert (= "Q" (str.at var34 563)))
(assert (= "*" (str.at var39 25)))
(assert (= "'" (str.at var59 6)))
(assert (= "+" (str.at var53 49)))
(assert (= "7" (str.at var53 194)))
(assert (= "m" (str.at var16 778)))
(assert (= "a" (str.at var21 479)))
(assert (= "b" (str.at var35 139)))
(assert (= "7" (str.at var16 486)))
(assert (= "j" (str.at var42 438)))
(assert (= "," (str.at var51 832)))
(assert (= "q" (str.at var24 702)))
(assert (= "B" (str.at var32 60)))
(assert (= "S" (str.at var5 532)))
(assert (= "+" (str.at var27 277)))
(assert (= "h" (str.at var11 634)))
(assert (= "q" (str.at var2 15)))
(assert (= "," (str.at var0 994)))
(assert (= "4" (str.at var9 485)))
(assert (= "I" (str.at var56 333)))
(assert (= "I" (str.at var1 854)))
(assert (= "N" (str.at var20 890)))
(assert (= "h" (str.at var38 662)))
(assert (= "d" (str.at var48 230)))
(assert (= "u" (str.at var48 548)))
(assert (= "k" (str.at var13 564)))
(assert (= "Z" (str.at var52 163)))
(assert (= "X" (str.at var34 801)))
(assert (= "o" (str.at var46 469)))
(assert (= "O" (str.at var0 252)))
(assert (= "_" (str.at var21 400)))
(assert (= "{" (str.at var43 156)))
(assert (= "u" (str.at var32 37)))
(assert (= "T" (str.at var7 240)))
(assert (= "R" (str.at var27 217)))
(assert (= "*" (str.at var53 487)))
(assert (= ":" (str.at var19 7)))
(assert (= "." (str.at var34 515)))
(assert (= "_" (str.at var25 289)))
(assert (= "R" (str.at var55 930)))
(assert (= "r" (str.at var39 331)))
(assert (= "J" (str.at var44 784)))
(assert (= "O" (str.at var45 686)))
(assert (= "7" (str.at var23 438)))
(assert (= "B" (str.at var5 280)))
(assert (= "." (str.at var0 454)))
(assert (= "z" (str.at var60 582)))
(assert (= ">" (str.at var60 592)))
(assert (= "\\" (str.at var31 693)))
(assert (= "3" (str.at var13 716)))
(assert (= "&" (str.at var30 285)))
(assert (= "8" (str.at var2 36)))
(assert (= "[" (str.at var31 410)))
(assert (= "C" (str.at var9 731)))
(assert (= "l" (str.at var52 882)))
(assert (= "*" (str.at var33 819)))
(assert (= "0" (str.at var12 35)))
(assert (= "b" (str.at var22 159)))
(assert (= "Q" (str.at var36 953)))
(assert (= "W" (str.at var0 647)))
(assert (= "\\" (str.at var47 671)))
(assert (= "4" (str.at var28 753)))
(assert (= "S" (str.at var6 421)))
(assert (= "w" (str.at var35 177)))
(assert (= "W" (str.at var27 297)))
(assert (= "I" (str.at var39 26)))
(assert (= "E" (str.at var60 286)))
(assert (= ":" (str.at var17 92)))
(assert (= "o" (str.at var43 684)))
(assert (= "~" (str.at var38 490)))
(assert (= "W" (str.at var22 154)))
(assert (= "_" (str.at var35 959)))
(assert (= "R" (str.at var37 595)))
(assert (= "y" (str.at var53 452)))
(assert (= "*" (str.at var48 303)))
(assert (= "4" (str.at var41 827)))
(assert (= "y" (str.at var28 687)))
(assert (= "7" (str.at var60 401)))
(assert (= "y" (str.at var40 564)))
(assert (= "U" (str.at var2 487)))
(assert (= "J" (str.at var16 547)))
(assert (= "T" (str.at var44 468)))
(assert (= "x" (str.at var21 234)))
(assert (= "N" (str.at var60 356)))
(assert (= "G" (str.at var17 814)))
(assert (= "%" (str.at var32 355)))
(assert (= "m" (str.at var46 26)))
(assert (= "Z" (str.at var21 770)))
(assert (= "{" (str.at var54 877)))
(assert (= "$" (str.at var0 957)))
(assert (= "`" (str.at var12 985)))
(assert (= "6" (str.at var34 966)))
(assert (= "@" (str.at var19 944)))
(assert (= "g" (str.at var10 437)))
(assert (= "j" (str.at var15 253)))
(assert (= "D" (str.at var35 332)))
(assert (= "b" (str.at var19 662)))
(assert (= "s" (str.at var33 99)))
(assert (= "x" (str.at var11 120)))
(assert (= "P" (str.at var35 744)))
(assert (= "K" (str.at var6 240)))
(assert (= "P" (str.at var29 52)))
(assert (= "+" (str.at var52 20)))
(assert (= "/" (str.at var4 929)))
(assert (= "E" (str.at var47 320)))
(assert (= "O" (str.at var46 244)))
(assert (= "N" (str.at var20 343)))
(assert (= "o" (str.at var25 496)))
(assert (= "}" (str.at var59 204)))
(assert (= "$" (str.at var21 949)))
(assert (= "'" (str.at var33 878)))
(assert (= "!" (str.at var44 98)))
(assert (= ">" (str.at var19 934)))
(assert (= "x" (str.at var16 739)))
(assert (= ")" (str.at var9 406)))
(assert (= "!" (str.at var4 267)))
(assert (= "j" (str.at var21 18)))
(assert (= "9" (str.at var40 920)))
(assert (= "p" (str.at var16 511)))
(assert (= "/" (str.at var4 949)))
(assert (= "U" (str.at var54 602)))
(assert (= "S" (str.at var39 67)))
(assert (= "m" (str.at var24 165)))
(assert (= "(" (str.at var38 106)))
(assert (= "n" (str.at var57 343)))
(assert (= "Q" (str.at var46 201)))
(assert (= "%" (str.at var46 12)))
(assert (= "E" (str.at var13 655)))
(assert (= "&" (str.at var12 507)))
(assert (= "F" (str.at var28 494)))
(assert (= "\\" (str.at var51 609)))
(assert (= "F" (str.at var14 519)))
(assert (= "e" (str.at var16 419)))
(assert (= "j" (str.at var57 602)))
(assert (= "." (str.at var22 466)))
(assert (= ";" (str.at var17 121)))
(assert (= "=" (str.at var8 838)))
(assert (= "U" (str.at var47 810)))
(assert (= "S" (str.at var1 82)))
(assert (= "'" (str.at var49 89)))
(assert (= "+" (str.at var51 173)))
(assert (= "K" (str.at var42 516)))
(assert (= "=" (str.at var48 85)))
(assert (= "H" (str.at var27 389)))
(assert (= "h" (str.at var12 585)))
(assert (= "M" (str.at var53 497)))
(assert (= "\\" (str.at var57 746)))
(assert (= "2" (str.at var14 104)))
(assert (= "." (str.at var40 215)))
(assert (= "+" (str.at var53 740)))
(assert (= "<" (str.at var27 454)))
(assert (= "P" (str.at var51 225)))
(assert (= "N" (str.at var8 409)))
(assert (= "a" (str.at var31 794)))
(assert (= "c" (str.at var57 787)))
(assert (= "A" (str.at var59 746)))
(assert (= "^" (str.at var4 708)))
(assert (= "p" (str.at var54 664)))
(assert (= "-" (str.at var8 422)))
(assert (= "?" (str.at var36 134)))
(assert (= "H" (str.at var59 634)))
(assert (= "2" (str.at var6 58)))
(assert (= "U" (str.at var38 447)))
(assert (= "e" (str.at var13 568)))
(assert (= "w" (str.at var42 569)))
(assert (= "'" (str.at var21 192)))
(assert (= "x" (str.at var43 758)))
(assert (= "W" (str.at var5 287)))
(assert (= "W" (str.at var13 724)))
(assert (= "X" (str.at var20 406)))
(assert (= "(" (str.at var29 753)))
(assert (= "#" (str.at var34 530)))
(assert (= "=" (str.at var55 487)))
(assert (= "j" (str.at var13 991)))
(assert (= "L" (str.at var32 865)))
(assert (= "0" (str.at var45 281)))
(assert (= "T" (str.at var55 703)))
(assert (= "]" (str.at var12 943)))
(assert (= "R" (str.at var53 894)))
(assert (= "d" (str.at var20 457)))
(assert (= "v" (str.at var50 989)))
(assert (= "s" (str.at var8 854)))
(assert (= ":" (str.at var9 234)))
(assert (= "X" (str.at var34 165)))
(assert (= "#" (str.at var32 813)))
(assert (= "w" (str.at var22 251)))
(assert (= "p" (str.at var8 203)))
(assert (= "Y" (str.at var1 243)))
(assert (= "W" (str.at var1 935)))
(assert (= "`" (str.at var30 895)))
(assert (= "l" (str.at var43 581)))
(assert (= "}" (str.at var53 117)))
(assert (= "Z" (str.at var32 447)))
(assert (= "j" (str.at var45 599)))
(assert (= "V" (str.at var31 212)))
(assert (= "&" (str.at var15 185)))
(assert (= "h" (str.at var5 363)))
(assert (= "u" (str.at var43 931)))
(assert (= "E" (str.at var59 268)))
(assert (= "/" (str.at var1 953)))
(assert (= "0" (str.at var55 809)))
(assert (= "C" (str.at var46 828)))
(assert (= "m" (str.at var49 996)))
(assert (= "e" (str.at var20 27)))
(assert (= "'" (str.at var2 126)))
(assert (= "4" (str.at var39 687)))
(assert (= "B" (str.at var28 62)))
(assert (= "h" (str.at var45 653)))
(assert (= "0" (str.at var3 1000)))
(assert (= "7" (str.at var57 165)))
(assert (= "1" (str.at var36 110)))
(assert (= "{" (str.at var24 525)))
(assert (= "w" (str.at var26 239)))
(assert (= "G" (str.at var16 494)))
(assert (= "/" (str.at var10 6)))
(assert (= "B" (str.at var22 618)))
(assert (= "b" (str.at var7 215)))
(assert (= "9" (str.at var58 783)))
(assert (= "J" (str.at var60 521)))
(assert (= "l" (str.at var35 1)))
(assert (= "A" (str.at var21 227)))
(assert (= "b" (str.at var20 503)))
(assert (= "7" (str.at var38 105)))
(assert (= "Y" (str.at var13 218)))
(assert (= "!" (str.at var42 53)))
(assert (= "h" (str.at var19 443)))
(assert (= "," (str.at var31 39)))
(assert (= ";" (str.at var9 24)))
(assert (= "$" (str.at var38 590)))
(assert (= "(" (str.at var33 424)))
(assert (= "$" (str.at var21 311)))
(assert (= "5" (str.at var42 105)))
(assert (= "'" (str.at var5 187)))
(assert (= "H" (str.at var53 966)))
(assert (= "_" (str.at var28 620)))
(assert (= "q" (str.at var49 641)))
(assert (= "n" (str.at var51 340)))
(assert (= "l" (str.at var23 571)))
(assert (= "E" (str.at var56 646)))
(assert (= "o" (str.at var44 485)))
(assert (= "K" (str.at var25 294)))
(assert (= "y" (str.at var14 37)))
(assert (= "%" (str.at var19 850)))
(check-sat)